Bruniera/ragionamento automatico/progetto/benchmark/asp/mid20.lp
start(0).
limit(6).
n(14).
strada(0,3,10).
strada(0,5,8).
strada(0,8,14).
strada(0,9,4).
strada(0,13,1).
strada(1,3,11).
strada(1,8,4).
strada(1,10,11).
strada(1,13,15).
strada(2,1,3).
strada(2,3,17).
strada(2,5,16).
strada(2,6,6).
strada(2,12,2).
strada(2,13,5).
strada(3,5,0).
strada(3,6,1).
strada(3,7,8).
strada(3,10,18).
strada(3,13,6).
strada(4,3,9).
strada(4,8,1).
strada(4,10,13).
strada(4,11,19).
strada(4,12,1).
strada(5,0,8).
strada(5,1,7).
strada(5,3,13).
strada(5,4,6).
strada(5,9,7).
strada(5,10,9).
strada(5,12,11).
strada(6,0,1).
strada(6,2,13).
strada(6,3,1).
strada(6,5,20).
strada(6,8,18).
strada(6,9,14).
strada(6,13,14).
strada(7,1,9).
strada(7,6,17).
strada(7,8,15).
strada(7,9,7).
strada(7,10,7).
strada(7,11,9).
strada(8,0,18).
strada(8,1,10).
strada(8,2,18).
strada(8,3,6).
strada(8,4,17).
strada(8,5,20).
strada(8,7,19).
strada(8,9,20).
strada(8,10,2).
strada(8,12,6).
strada(8,13,5).
strada(9,0,14).
strada(9,1,20).
strada(9,4,17).
strada(9,11,1).
strada(9,13,13).
strada(10,1,20).
strada(10,6,2).
strada(10,7,3).
strada(10,8,0).
strada(11,0,15).
strada(11,1,0).
strada(11,2,12).
strada(11,5,5).
strada(11,6,19).
strada(11,7,8).
strada(11,8,4).
strada(11,9,18).
strada(12,0,17).
strada(12,3,18).
strada(12,5,16).
strada(12,7,8).
strada(12,8,4).
strada(12,9,4).
strada(13,3,20).
strada(13,4,17).
strada(13,5,19).
strada(13,6,0).
strada(13,9,17).
strada(13,10,2).
strada(13,11,17).
