Bruniera/ragionamento automatico/progetto/benchmark/minizinc/mid20.dzn
start = 1;
limit = 6;
n = 14;
m=[|-1,-1,-1,10,-1,8,-1,-1,14,4,-1,-1,-1,1,
|-1,-1,-1,11,-1,-1,-1,-1,4,-1,11,-1,-1,15,
|-1,3,-1,17,-1,16,6,-1,-1,-1,-1,-1,2,5,
|-1,-1,-1,-1,-1,0,1,8,-1,-1,18,-1,-1,6,
|-1,-1,-1,9,-1,-1,-1,-1,1,-1,13,19,1,-1,
|8,7,-1,13,6,-1,-1,-1,-1,7,9,-1,11,-1,
|1,-1,13,1,-1,20,-1,-1,18,14,-1,-1,-1,14,
|-1,9,-1,-1,-1,-1,17,-1,15,7,7,9,-1,-1,
|18,10,18,6,17,20,-1,19,-1,20,2,-1,6,5,
|14,20,-1,-1,17,-1,-1,-1,-1,-1,-1,1,-1,13,
|-1,20,-1,-1,-1,-1,2,3,0,-1,-1,-1,-1,-1,
|15,0,12,-1,-1,5,19,8,4,18,-1,-1,-1,-1,
|17,-1,-1,18,-1,16,-1,8,4,4,-1,-1,-1,-1,
|-1,-1,-1,20,17,19,0,-1,-1,17,2,17,-1,-1,
|]
;